	Costo	Iter.	Tiempo
1	534,61	280	96,374
2	855,51	250	150,202
3	850,01	147	216,749
4	1099,06	88	301,562
5	1398,82	48	304,234
6	560,88	171	56,234
7	927,15	145	300,967
8	868,68	143	300,171
9	1276,41	3	319,218
10	1556,8	2	414,891
11	1245,67	177	300,936
12	841,96	187	168,062
13	1599,72	123	192,827
14	897,97	123	111,593
